NAME: hypercube_embed_d6_n64
TYPE: TSP
DIMENSION: 64
EDGE_WEIGHT_TYPE: EUC_2D
NODE_COORD_SECTION
1 0.000000 0.000000
2 10.000000 0.000000
3 20.000000 0.000000
4 30.000000 0.000000
5 40.000000 0.000000
6 50.000000 0.000000
7 60.000000 0.000000
8 70.000000 0.000000
9 0.000000 10.000000
10 10.000000 10.000000
11 20.000000 10.000000
12 30.000000 10.000000
13 40.000000 10.000000
14 50.000000 10.000000
15 60.000000 10.000000
16 70.000000 10.000000
17 0.000000 20.000000
18 10.000000 20.000000
19 20.000000 20.000000
20 30.000000 20.000000
21 40.000000 20.000000
22 50.000000 20.000000
23 60.000000 20.000000
24 70.000000 20.000000
25 0.000000 30.000000
26 10.000000 30.000000
27 20.000000 30.000000
28 30.000000 30.000000
29 40.000000 30.000000
30 50.000000 30.000000
31 60.000000 30.000000
32 70.000000 30.000000
33 0.000000 40.000000
34 10.000000 40.000000
35 20.000000 40.000000
36 30.000000 40.000000
37 40.000000 40.000000
38 50.000000 40.000000
39 60.000000 40.000000
40 70.000000 40.000000
41 0.000000 50.000000
42 10.000000 50.000000
43 20.000000 50.000000
44 30.000000 50.000000
45 40.000000 50.000000
46 50.000000 50.000000
47 60.000000 50.000000
48 70.000000 50.000000
49 0.000000 60.000000
50 10.000000 60.000000
51 20.000000 60.000000
52 30.000000 60.000000
53 40.000000 60.000000
54 50.000000 60.000000
55 60.000000 60.000000
56 70.000000 60.000000
57 0.000000 70.000000
58 10.000000 70.000000
59 20.000000 70.000000
60 30.000000 70.000000
61 40.000000 70.000000
62 50.000000 70.000000
63 60.000000 70.000000
64 70.000000 70.000000
EOF
